c strEdges: 125  randomEdges: 504 
c degrees:  1  2 
c girth: Inf max: -43.604516  
c Hgirth mixed MAXCUT instance
c generated from an undirected graph
c to solve unweighted MaxCut
p cnf 140 1258
48 112 0
-48 -112 0
48 45 0
-48 -45 0
89 78 0
-89 -78 0
89 23 0
-89 -23 0
64 93 0
-64 -93 0
64 134 0
-64 -134 0
25 135 0
-25 -135 0
7 113 0
-7 -113 0
7 21 0
-7 -21 0
107 122 0
-107 -122 0
107 71 0
-107 -71 0
17 136 0
-17 -136 0
94 96 0
-94 -96 0
94 105 0
-94 -105 0
47 23 0
-47 -23 0
47 54 0
-47 -54 0
115 72 0
-115 -72 0
115 55 0
-115 -55 0
34 9 0
-34 -9 0
34 80 0
-34 -80 0
130 45 0
-130 -45 0
130 57 0
-130 -57 0
22 69 0
-22 -69 0
22 36 0
-22 -36 0
114 61 0
-114 -61 0
114 135 0
-114 -135 0
35 74 0
-35 -74 0
18 118 0
-18 -118 0
37 12 0
-37 -12 0
37 78 0
-37 -78 0
129 101 0
-129 -101 0
129 65 0
-129 -65 0
139 21 0
-139 -21 0
139 42 0
-139 -42 0
83 19 0
-83 -19 0
83 8 0
-83 -8 0
73 105 0
-73 -105 0
73 28 0
-73 -28 0
24 70 0
-24 -70 0
24 66 0
-24 -66 0
58 95 0
-58 -95 0
99 124 0
-99 -124 0
99 86 0
-99 -86 0
13 42 0
-13 -42 0
13 49 0
-13 -49 0
79 71 0
-79 -71 0
67 87 0
-67 -87 0
131 51 0
-131 -51 0
131 91 0
-131 -91 0
81 11 0
-81 -11 0
81 12 0
-81 -12 0
126 1 0
-126 -1 0
126 69 0
-126 -69 0
116 54 0
-116 -54 0
38 4 0
-38 -4 0
38 97 0
-38 -97 0
133 28 0
-133 -28 0
133 39 0
-133 -39 0
29 20 0
-29 -20 0
29 87 0
-29 -87 0
104 26 0
-104 -26 0
104 96 0
-104 -96 0
100 52 0
-100 -52 0
68 66 0
-68 -66 0
68 121 0
-68 -121 0
43 90 0
-43 -90 0
43 40 0
-43 -40 0
44 40 0
-44 -40 0
44 20 0
-44 -20 0
106 8 0
-106 -8 0
106 128 0
-106 -128 0
82 91 0
-82 -91 0
82 72 0
-82 -72 0
138 84 0
-138 -84 0
138 109 0
-138 -109 0
50 117 0
-50 -117 0
50 88 0
-50 -88 0
108 15 0
-108 -15 0
108 95 0
-108 -95 0
60 65 0
-60 -65 0
60 93 0
-60 -93 0
85 2 0
-85 -2 0
85 19 0
-85 -19 0
123 128 0
-123 -128 0
132 121 0
-132 -121 0
132 136 0
-132 -136 0
5 55 0
-5 -55 0
5 56 0
-5 -56 0
30 62 0
-30 -62 0
30 117 0
-30 -117 0
75 134 0
-75 -134 0
75 61 0
-75 -61 0
119 125 0
-119 -125 0
119 51 0
-119 -51 0
32 31 0
-32 -31 0
32 112 0
-32 -112 0
137 109 0
-137 -109 0
137 62 0
-137 -62 0
140 86 0
-140 -86 0
140 77 0
-140 -77 0
46 110 0
-46 -110 0
46 1 0
-46 -1 0
63 57 0
-63 -57 0
63 76 0
-63 -76 0
59 97 0
-59 -97 0
59 90 0
-59 -90 0
27 36 0
-27 -36 0
27 11 0
-27 -11 0
16 14 0
-16 -14 0
16 125 0
-16 -125 0
53 77 0
-53 -77 0
53 33 0
-53 -33 0
10 6 0
-10 -6 0
102 33 0
-102 -33 0
102 84 0
-102 -84 0
41 88 0
-41 -88 0
92 39 0
-92 -39 0
92 70 0
-92 -70 0
98 49 0
-98 -49 0
127 56 0
-127 -56 0
127 113 0
-127 -113 0
111 103 0
-111 -103 0
3 76 0
-3 -76 0
3 6 0
-3 -6 0
120 80 0
-120 -80 0
25 82 0
-25 -82 0
85 26 0
-85 -26 0
131 136 0
-131 -136 0
13 101 0
-13 -101 0
48 82 0
-48 -82 0
22 120 0
-22 -120 0
41 96 0
-41 -96 0
72 77 0
-72 -77 0
135 109 0
-135 -109 0
114 121 0
-114 -121 0
24 31 0
-24 -31 0
123 33 0
-123 -33 0
55 134 0
-55 -134 0
7 27 0
-7 -27 0
3 62 0
-3 -62 0
44 3 0
-44 -3 0
47 68 0
-47 -68 0
38 104 0
-38 -104 0
102 91 0
-102 -91 0
52 117 0
-52 -117 0
107 96 0
-107 -96 0
129 26 0
-129 -26 0
136 87 0
-136 -87 0
108 117 0
-108 -117 0
4 62 0
-4 -62 0
123 125 0
-123 -125 0
34 74 0
-34 -74 0
9 117 0
-9 -117 0
111 51 0
-111 -51 0
63 70 0
-63 -70 0
72 61 0
-72 -61 0
73 58 0
-73 -58 0
129 24 0
-129 -24 0
34 53 0
-34 -53 0
81 43 0
-81 -43 0
64 82 0
-64 -82 0
48 89 0
-48 -89 0
133 14 0
-133 -14 0
106 59 0
-106 -59 0
26 36 0
-26 -36 0
2 39 0
-2 -39 0
42 87 0
-42 -87 0
98 136 0
-98 -136 0
91 14 0
-91 -14 0
9 128 0
-9 -128 0
104 85 0
-104 -85 0
131 106 0
-131 -106 0
4 28 0
-4 -28 0
74 62 0
-74 -62 0
50 69 0
-50 -69 0
22 43 0
-22 -43 0
13 108 0
-13 -108 0
27 113 0
-27 -113 0
106 27 0
-106 -27 0
129 71 0
-129 -71 0
7 83 0
-7 -83 0
46 23 0
-46 -23 0
139 52 0
-139 -52 0
46 6 0
-46 -6 0
18 62 0
-18 -62 0
107 108 0
-107 -108 0
113 136 0
-113 -136 0
63 1 0
-63 -1 0
81 77 0
-81 -77 0
94 45 0
-94 -45 0
34 65 0
-34 -65 0
22 124 0
-22 -124 0
37 120 0
-37 -120 0
107 115 0
-107 -115 0
32 136 0
-32 -136 0
109 49 0
-109 -49 0
43 135 0
-43 -135 0
99 112 0
-99 -112 0
60 6 0
-60 -6 0
22 113 0
-22 -113 0
37 69 0
-37 -69 0
111 120 0
-111 -120 0
25 15 0
-25 -15 0
115 112 0
-115 -112 0
127 74 0
-127 -74 0
105 77 0
-105 -77 0
64 81 0
-64 -81 0
87 86 0
-87 -86 0
130 56 0
-130 -56 0
17 34 0
-17 -34 0
41 40 0
-41 -40 0
24 138 0
-24 -138 0
127 86 0
-127 -86 0
100 122 0
-100 -122 0
13 63 0
-13 -63 0
66 110 0
-66 -110 0
106 87 0
-106 -87 0
26 76 0
-26 -76 0
132 66 0
-132 -66 0
18 75 0
-18 -75 0
85 33 0
-85 -33 0
130 53 0
-130 -53 0
44 135 0
-44 -135 0
26 103 0
-26 -103 0
79 69 0
-79 -69 0
28 97 0
-28 -97 0
92 57 0
-92 -57 0
53 111 0
-53 -111 0
25 110 0
-25 -110 0
124 87 0
-124 -87 0
58 44 0
-58 -44 0
136 62 0
-136 -62 0
109 77 0
-109 -77 0
68 26 0
-68 -26 0
75 16 0
-75 -16 0
112 45 0
-112 -45 0
42 117 0
-42 -117 0
101 8 0
-101 -8 0
134 33 0
-134 -33 0
57 88 0
-57 -88 0
93 11 0
-93 -11 0
83 102 0
-83 -102 0
48 77 0
-48 -77 0
87 52 0
-87 -52 0
135 61 0
-135 -61 0
17 24 0
-17 -24 0
94 82 0
-94 -82 0
24 119 0
-24 -119 0
22 1 0
-22 -1 0
98 55 0
-98 -55 0
55 62 0
-55 -62 0
100 4 0
-100 -4 0
18 53 0
-18 -53 0
62 103 0
-62 -103 0
16 15 0
-16 -15 0
17 78 0
-17 -78 0
25 44 0
-25 -44 0
120 113 0
-120 -113 0
47 57 0
-47 -57 0
100 1 0
-100 -1 0
137 19 0
-137 -19 0
45 54 0
-45 -54 0
34 2 0
-34 -2 0
130 18 0
-130 -18 0
67 38 0
-67 -38 0
102 125 0
-102 -125 0
112 117 0
-112 -117 0
23 6 0
-23 -6 0
25 121 0
-25 -121 0
32 62 0
-32 -62 0
5 23 0
-5 -23 0
19 57 0
-19 -57 0
93 1 0
-93 -1 0
104 80 0
-104 -80 0
60 102 0
-60 -102 0
13 14 0
-13 -14 0
117 134 0
-117 -134 0
95 33 0
-95 -33 0
10 103 0
-10 -103 0
130 78 0
-130 -78 0
38 70 0
-38 -70 0
83 95 0
-83 -95 0
137 59 0
-137 -59 0
26 77 0
-26 -77 0
13 5 0
-13 -5 0
46 20 0
-46 -20 0
101 90 0
-101 -90 0
116 113 0
-116 -113 0
104 74 0
-104 -74 0
13 9 0
-13 -9 0
107 112 0
-107 -112 0
23 125 0
-23 -125 0
75 121 0
-75 -121 0
67 31 0
-67 -31 0
37 41 0
-37 -41 0
130 8 0
-130 -8 0
78 110 0
-78 -110 0
72 95 0
-72 -95 0
41 117 0
-41 -117 0
136 70 0
-136 -70 0
4 26 0
-4 -26 0
75 110 0
-75 -110 0
24 134 0
-24 -134 0
7 18 0
-7 -18 0
30 84 0
-30 -84 0
116 96 0
-116 -96 0
79 128 0
-79 -128 0
47 140 0
-47 -140 0
22 13 0
-22 -13 0
32 70 0
-32 -70 0
59 134 0
-59 -134 0
41 61 0
-41 -61 0
94 114 0
-94 -114 0
64 73 0
-64 -73 0
11 117 0
-11 -117 0
48 90 0
-48 -90 0
104 33 0
-104 -33 0
81 88 0
-81 -88 0
13 124 0
-13 -124 0
129 83 0
-129 -83 0
111 8 0
-111 -8 0
67 68 0
-67 -68 0
102 6 0
-102 -6 0
7 106 0
-7 -106 0
11 31 0
-11 -31 0
115 108 0
-115 -108 0
34 92 0
-34 -92 0
41 52 0
-41 -52 0
34 58 0
-34 -58 0
32 61 0
-32 -61 0
58 103 0
-58 -103 0
83 128 0
-83 -128 0
58 9 0
-58 -9 0
22 10 0
-22 -10 0
81 2 0
-81 -2 0
66 15 0
-66 -15 0
114 75 0
-114 -75 0
28 65 0
-28 -65 0
120 52 0
-120 -52 0
64 21 0
-64 -21 0
94 6 0
-94 -6 0
37 10 0
-37 -10 0
17 139 0
-17 -139 0
85 65 0
-85 -65 0
114 93 0
-114 -93 0
37 51 0
-37 -51 0
61 117 0
-61 -117 0
25 55 0
-25 -55 0
116 51 0
-116 -51 0
104 117 0
-104 -117 0
102 105 0
-102 -105 0
75 80 0
-75 -80 0
123 46 0
-123 -46 0
137 39 0
-137 -39 0
9 57 0
-9 -57 0
83 61 0
-83 -61 0
41 54 0
-41 -54 0
89 121 0
-89 -121 0
50 132 0
-50 -132 0
108 54 0
-108 -54 0
11 54 0
-11 -54 0
114 55 0
-114 -55 0
138 53 0
-138 -53 0
137 86 0
-137 -86 0
91 6 0
-91 -6 0
10 20 0
-10 -20 0
8 36 0
-8 -36 0
81 50 0
-81 -50 0
139 80 0
-139 -80 0
95 49 0
-95 -49 0
129 51 0
-129 -51 0
85 120 0
-85 -120 0
81 30 0
-81 -30 0
44 15 0
-44 -15 0
18 57 0
-18 -57 0
34 134 0
-34 -134 0
78 84 0
-78 -84 0
83 85 0
-83 -85 0
30 74 0
-30 -74 0
58 31 0
-58 -31 0
126 32 0
-126 -32 0
69 91 0
-69 -91 0
94 110 0
-94 -110 0
17 135 0
-17 -135 0
63 101 0
-63 -101 0
60 86 0
-60 -86 0
94 85 0
-94 -85 0
131 112 0
-131 -112 0
79 108 0
-79 -108 0
43 15 0
-43 -15 0
101 105 0
-101 -105 0
53 103 0
-53 -103 0
135 6 0
-135 -6 0
45 97 0
-45 -97 0
119 63 0
-119 -63 0
50 8 0
-50 -8 0
34 110 0
-34 -110 0
114 76 0
-114 -76 0
84 86 0
-84 -86 0
121 6 0
-121 -6 0
120 33 0
-120 -33 0
67 116 0
-67 -116 0
117 36 0
-117 -36 0
123 21 0
-123 -21 0
84 110 0
-84 -110 0
118 6 0
-118 -6 0
79 30 0
-79 -30 0
115 77 0
-115 -77 0
12 1 0
-12 -1 0
98 69 0
-98 -69 0
95 8 0
-95 -8 0
114 92 0
-114 -92 0
133 128 0
-133 -128 0
6 56 0
-6 -56 0
75 128 0
-75 -128 0
62 49 0
-62 -49 0
41 93 0
-41 -93 0
116 125 0
-116 -125 0
139 12 0
-139 -12 0
79 2 0
-79 -2 0
120 118 0
-120 -118 0
92 101 0
-92 -101 0
58 13 0
-58 -13 0
15 55 0
-15 -55 0
53 74 0
-53 -74 0
89 69 0
-89 -69 0
89 125 0
-89 -125 0
71 11 0
-71 -11 0
81 125 0
-81 -125 0
61 4 0
-61 -4 0
117 33 0
-117 -33 0
60 70 0
-60 -70 0
106 6 0
-106 -6 0
67 27 0
-67 -27 0
92 23 0
-92 -23 0
38 10 0
-38 -10 0
54 121 0
-54 -121 0
94 13 0
-94 -13 0
108 122 0
-108 -122 0
127 112 0
-127 -112 0
137 102 0
-137 -102 0
140 90 0
-140 -90 0
60 125 0
-60 -125 0
104 127 0
-104 -127 0
89 131 0
-89 -131 0
75 101 0
-75 -101 0
15 109 0
-15 -109 0
32 63 0
-32 -63 0
89 62 0
-89 -62 0
10 134 0
-10 -134 0
130 24 0
-130 -24 0
83 93 0
-83 -93 0
130 19 0
-130 -19 0
70 65 0
-70 -65 0
32 86 0
-32 -86 0
43 8 0
-43 -8 0
41 56 0
-41 -56 0
10 21 0
-10 -21 0
82 113 0
-82 -113 0
139 41 0
-139 -41 0
84 62 0
-84 -62 0
116 60 0
-116 -60 0
89 14 0
-89 -14 0
32 15 0
-32 -15 0
133 138 0
-133 -138 0
107 136 0
-107 -136 0
104 6 0
-104 -6 0
83 125 0
-83 -125 0
13 70 0
-13 -70 0
99 50 0
-99 -50 0
53 80 0
-53 -80 0
115 74 0
-115 -74 0
31 88 0
-31 -88 0
45 86 0
-45 -86 0
83 36 0
-83 -36 0
67 26 0
-67 -26 0
81 93 0
-81 -93 0
131 133 0
-131 -133 0
13 10 0
-13 -10 0
73 134 0
-73 -134 0
96 45 0
-96 -45 0
16 4 0
-16 -4 0
6 39 0
-6 -39 0
83 117 0
-83 -117 0
22 68 0
-22 -68 0
114 45 0
-114 -45 0
75 45 0
-75 -45 0
99 51 0
-99 -51 0
137 92 0
-137 -92 0
99 77 0
-99 -77 0
47 69 0
-47 -69 0
44 46 0
-44 -46 0
116 12 0
-116 -12 0
58 74 0
-58 -74 0
26 121 0
-26 -121 0
73 132 0
-73 -132 0
71 4 0
-71 -4 0
126 78 0
-126 -78 0
114 24 0
-114 -24 0
10 121 0
-10 -121 0
30 119 0
-30 -119 0
107 29 0
-107 -29 0
108 41 0
-108 -41 0
7 9 0
-7 -9 0
7 74 0
-7 -74 0
73 59 0
-73 -59 0
32 101 0
-32 -101 0
32 87 0
-32 -87 0
54 15 0
-54 -15 0
126 86 0
-126 -86 0
13 86 0
-13 -86 0
18 134 0
-18 -134 0
35 38 0
-35 -38 0
64 43 0
-64 -43 0
79 26 0
-79 -26 0
108 19 0
-108 -19 0
69 80 0
-69 -80 0
131 123 0
-131 -123 0
53 41 0
-53 -41 0
67 12 0
-67 -12 0
5 88 0
-5 -88 0
126 120 0
-126 -120 0
137 88 0
-137 -88 0
131 127 0
-131 -127 0
105 65 0
-105 -65 0
17 116 0
-17 -116 0
137 101 0
-137 -101 0
34 60 0
-34 -60 0
100 61 0
-100 -61 0
19 1 0
-19 -1 0
57 103 0
-57 -103 0
94 20 0
-94 -20 0
138 15 0
-138 -15 0
122 21 0
-122 -21 0
35 103 0
-35 -103 0
85 95 0
-85 -95 0
138 105 0
-138 -105 0
25 72 0
-25 -72 0
94 71 0
-94 -71 0
47 15 0
-47 -15 0
123 52 0
-123 -52 0
89 103 0
-89 -103 0
67 100 0
-67 -100 0
81 28 0
-81 -28 0
116 132 0
-116 -132 0
53 70 0
-53 -70 0
89 26 0
-89 -26 0
34 41 0
-34 -41 0
64 138 0
-64 -138 0
1 52 0
-1 -52 0
131 77 0
-131 -77 0
37 80 0
-37 -80 0
72 74 0
-72 -74 0
130 125 0
-130 -125 0
104 61 0
-104 -61 0
37 59 0
-37 -59 0
107 26 0
-107 -26 0
79 75 0
-79 -75 0
123 137 0
-123 -137 0
58 69 0
-58 -69 0
38 75 0
-38 -75 0
7 102 0
-7 -102 0
64 132 0
-64 -132 0
115 59 0
-115 -59 0
23 121 0
-23 -121 0
22 123 0
-22 -123 0
27 31 0
-27 -31 0
100 5 0
-100 -5 0
104 97 0
-104 -97 0
7 97 0
-7 -97 0
58 121 0
-58 -121 0
105 40 0
-105 -40 0
86 97 0
-86 -97 0
104 66 0
-104 -66 0
41 78 0
-41 -78 0
136 12 0
-136 -12 0
94 31 0
-94 -31 0
90 76 0
-90 -76 0
23 2 0
-23 -2 0
7 8 0
-7 -8 0
107 98 0
-107 -98 0
137 72 0
-137 -72 0
72 49 0
-72 -49 0
139 2 0
-139 -2 0
122 96 0
-122 -96 0
12 21 0
-12 -21 0
69 8 0
-69 -8 0
83 87 0
-83 -87 0
137 3 0
-137 -3 0
112 118 0
-112 -118 0
100 19 0
-100 -19 0
63 127 0
-63 -127 0
29 85 0
-29 -85 0
44 109 0
-44 -109 0
132 70 0
-132 -70 0
37 98 0
-37 -98 0
22 117 0
-22 -117 0
50 77 0
-50 -77 0
38 98 0
-38 -98 0
68 84 0
-68 -84 0
16 110 0
-16 -110 0
46 92 0
-46 -92 0
38 90 0
-38 -90 0
85 20 0
-85 -20 0
53 39 0
-53 -39 0
7 129 0
-7 -129 0
73 138 0
-73 -138 0
74 71 0
-74 -71 0
27 77 0
-27 -77 0
30 71 0
-30 -71 0
82 10 0
-82 -10 0
123 111 0
-123 -111 0
67 43 0
-67 -43 0
116 85 0
-116 -85 0
133 124 0
-133 -124 0
98 76 0
-98 -76 0
59 54 0
-59 -54 0
97 80 0
-97 -80 0
119 78 0
-119 -78 0
5 66 0
-5 -66 0
74 109 0
-74 -109 0
105 97 0
-105 -97 0
78 124 0
-78 -124 0
102 19 0
-102 -19 0
34 11 0
-34 -11 0
89 53 0
-89 -53 0
67 56 0
-67 -56 0
7 46 0
-7 -46 0
67 86 0
-67 -86 0
